SimulationType        MonteCarlo
NumberOfCycles        50000
NumberOfInitializationCycles  50000
PrintEvery            1000
RestartFile            no
ContinueAfterCrash    no
WriteBinaryRestartFileEvery 1000


Forcefield            Local
ChargeMethod                        Ewald
EwaldPrecision                      1e-6
CutOff                               12.8

Framework 0
FrameworkName cof_cif37
InputFileType cif
UseChargesFromCIFFile Yes
UnitCells 1 1 1
HeliumVoidFraction 0.420553
ExternalTemperature 333
ExternalPressure 50 
ComputeDensityProfile3DVTKGrid yes
WriteDensityProfile3DVTKGridEvery 5000
DensityProfile3DVTKGridPoints 150 150 150
UnitCells 1 1 1
DensityAveragingTypeVTK FullCell

Component 0 MoleculeName             ethanol
            MoleculeDefinition       local
            TranslationProbability   1.0
            RotationProbability      1.0
            ReinsertionProbability   1.0
            SwapProbability          2.0
            CreateNumberOfMolecules  0
