SimulationType                MonteCarlo
NumberOfCycles                20000
NumberOfInitializationCycles  20000
Movies                        yes
PrintEvery                    1000
WriteMOvieEvery               1000
RestartFile                   no
PrintRestartFile              1000
ContinueAfterCrash            no
WriteBinaryRestartFileEvery   1000

Forcefield                    Local
ChargeMethod                  Ewald
EwaldPrecision                1e-6 
CutOff                        12.8

Framework 0
FrameworkName mof_1
InputFileType cif
UseChargesFromCIFFile         yes
UnitCells 2 2 1
HeliumVoidFraction 0.6458
ExternalTemperature 333
ExternalPressure  3000


Component 0 MoleculeName             ethanol
            MoleculeDefinition       Local
            TranslationProbability   1
            RotationProbability      1
            ReinsertionProbability   1
	    SwapProbability          2
            CreateNumberOfMolecules  0
			
			
